units metal
boundary p p p
atom_style atomic

neighbor 2.0 bin
neigh_modify every 1 delay 0 check no

read_data _R_DATA_FILE_

pair_style deepmd _R_MODEL_FILES_ out_freq _R_PRINT_FREQ_ out_file _R_DEVI_OUT_
pair_coeff * *

timestep _R_TIMESTEP_

dump dcd all dcd _R_PRINT_FREQ_ _R_DCD_OUT_

thermo_style custom step time etotal ke pe temp press vol density cella cellb cellc cpuremain
thermo_modify flush yes
thermo _R_PRINT_FREQ_

#group frame type 1 4
#group silanols type 2 3
#group mobile type 2 3 5 6
#group water type 5 6
group rigid id 119 138 139 107 131

velocity all create _R_TEMPERATURE_ _R_SEED_VEL_ dist gaussian

fix 1 rigid setforce 0.0 0.0 0.0
fix 2 all nve
fix 3 all temp/csvr _R_TEMPERATURE_ _R_TEMPERATURE_ $(100.0*dt) _R_SEED_THER_
fix 4 all momentum 1 linear 1 1 1

run _R_NUMBER_OF_STEPS_

write_restart _R_RESTART_OUT_